* LP written by GAMS Convert at 12/18/23 11:41:07
*
* Equation counts
*     Total        E        G        L        N        X        C        B
*        73       17        0       56        0        0        0        0
*
* Variable counts
*                  x        b        i      s1s      s2s       sc       si
*     Total     cont   binary  integer     sos1     sos2    scont     sint
*       129      129        0        0        0        0        0        0
* FX      0
*
* Nonzero counts
*     Total    const       NL
*       553      553        0

NAME          Convert
*
* original model was minimizing
*
ROWS
 N  obj
 E  e1
 E  e2
 E  e3
 E  e4
 E  e5
 E  e6
 E  e7
 E  e8
 E  e9
 E  e10
 E  e11
 E  e12
 E  e13
 E  e14
 E  e15
 E  e16
 L  e17
 L  e18
 L  e19
 L  e20
 L  e21
 L  e22
 L  e23
 L  e24
 L  e25
 L  e26
 L  e27
 L  e28
 L  e29
 L  e30
 L  e31
 L  e32
 L  e33
 L  e34
 L  e35
 L  e36
 L  e37
 L  e38
 L  e39
 L  e40
 L  e41
 L  e42
 L  e43
 L  e44
 L  e45
 L  e46
 L  e47
 L  e48
 L  e49
 L  e50
 L  e51
 L  e52
 L  e53
 L  e54
 L  e55
 L  e56
 L  e57
 L  e58
 L  e59
 L  e60
 L  e61
 L  e62
 L  e63
 L  e64
 L  e65
 L  e66
 L  e67
 L  e68
 L  e69
 L  e70
 L  e71
 L  e72
 E  e73
COLUMNS
    x1        e1                0.24
    x1        e2               -0.19
    x1        e73        -0.00519721
    x2        e1                   1
    x2        e3               -0.76
    x2        e4               -0.19
    x2        e73       -243.9205355
    x3        e1                   1
    x3        e5               -0.76
    x3        e6               -0.19
    x3        e73       -534.5147984
    x4        e1                   1
    x4        e7               -0.76
    x4        e8               -0.19
    x4        e73       -880.9298884
    x5        e1                   1
    x5        e9               -0.76
    x5        e10              -0.19
    x5        e73       -1294.186247
    x6        e1                   1
    x6        e11              -0.76
    x6        e12              -0.19
    x6        e73       -1787.592427
    x7        e1                   1
    x7        e13              -0.76
    x7        e14              -0.19
    x7        e73       -2377.249834
    x8        e1                   1
    x8        e15              -0.76
    x8        e16              -0.19
    x8        e73       -3082.676219
    x9        e1              -0.475
    x9        e2               0.525
    x9        e73       -537.5638833
    x10       e2                   1
    x10       e3              -0.475
    x10       e4              -0.475
    x10       e17                  1
    x10       e73       -917.0294449
    x11       e2                   1
    x11       e5              -0.475
    x11       e6              -0.475
    x11       e18                  2
    x11       e73       -1373.574971
    x12       e2                   1
    x12       e7              -0.475
    x12       e8              -0.475
    x12       e19                  3
    x12       e73       -1923.159906
    x13       e2                   1
    x13       e9              -0.475
    x13       e10             -0.475
    x13       e20                  4
    x13       e73       -2585.208252
    x14       e2                   1
    x14       e11             -0.475
    x14       e12             -0.475
    x14       e21                  5
    x14       e73       -3383.406554
    x15       e2                   1
    x15       e13             -0.475
    x15       e14             -0.475
    x15       e22                  6
    x15       e73       -4346.697829
    x16       e2                   1
    x16       e15             -0.475
    x16       e16             -0.475
    x16       e23                  7
    x16       e73       -5510.522772
    x17       e1               -0.76
    x17       e2               -0.19
    x17       e3                   1
    x17       e73       203.86770308
    x18       e3                0.24
    x18       e4               -0.19
    x18       e73        -0.96519721
    x19       e3                   1
    x19       e5               -0.76
    x19       e6               -0.19
    x19       e73       -244.8805355
    x20       e3                   1
    x20       e7               -0.76
    x20       e8               -0.19
    x20       e73       -535.4747984
    x21       e3                   1
    x21       e9               -0.76
    x21       e10              -0.19
    x21       e73       -881.8898884
    x22       e3                   1
    x22       e11              -0.76
    x22       e12              -0.19
    x22       e73       -1295.146247
    x23       e3                   1
    x23       e13              -0.76
    x23       e14              -0.19
    x23       e73       -1788.552427
    x24       e3                   1
    x24       e15              -0.76
    x24       e16              -0.19
    x24       e73       -2378.209834
    x25       e1              -0.475
    x25       e2              -0.475
    x25       e4                   1
    x25       e24                 -1
    x25       e73       -223.0010851
    x26       e3              -0.475
    x26       e4               0.525
    x26       e73       -538.5238833
    x27       e4                   1
    x27       e5              -0.475
    x27       e6              -0.475
    x27       e25                  1
    x27       e73       -917.9894449
    x28       e4                   1
    x28       e7              -0.475
    x28       e8              -0.475
    x28       e26                  2
    x28       e73       -1374.534971
    x29       e4                   1
    x29       e9              -0.475
    x29       e10             -0.475
    x29       e27                  3
    x29       e73       -1924.119906
    x30       e4                   1
    x30       e11             -0.475
    x30       e12             -0.475
    x30       e28                  4
    x30       e73       -2586.168252
    x31       e4                   1
    x31       e13             -0.475
    x31       e14             -0.475
    x31       e29                  5
    x31       e73       -3384.366554
    x32       e4                   1
    x32       e15             -0.475
    x32       e16             -0.475
    x32       e30                  6
    x32       e73       -4347.657829
    x33       e1               -0.76
    x33       e2               -0.19
    x33       e5                   1
    x33       e73       374.98078418
    x34       e3               -0.76
    x34       e4               -0.19
    x34       e5                   1
    x34       e73       202.90770308
    x35       e5                0.24
    x35       e6               -0.19
    x35       e73        -1.92519721
    x36       e5                   1
    x36       e7               -0.76
    x36       e8               -0.19
    x36       e73       -245.8405355
    x37       e5                   1
    x37       e9               -0.76
    x37       e10              -0.19
    x37       e73       -536.4347984
    x38       e5                   1
    x38       e11              -0.76
    x38       e12              -0.19
    x38       e73       -882.8498884
    x39       e5                   1
    x39       e13              -0.76
    x39       e14              -0.19
    x39       e73       -1296.106247
    x40       e5                   1
    x40       e15              -0.76
    x40       e16              -0.19
    x40       e73       -1789.512427
    x41       e1              -0.475
    x41       e2              -0.475
    x41       e6                   1
    x41       e31                 -2
    x41       e73       38.452185191
    x42       e3              -0.475
    x42       e4              -0.475
    x42       e6                   1
    x42       e32                 -1
    x42       e73       -223.9610851
    x43       e5              -0.475
    x43       e6               0.525
    x43       e73       -539.4838833
    x44       e6                   1
    x44       e7              -0.475
    x44       e8              -0.475
    x44       e33                  1
    x44       e73       -918.9494449
    x45       e6                   1
    x45       e9              -0.475
    x45       e10             -0.475
    x45       e34                  2
    x45       e73       -1375.494971
    x46       e6                   1
    x46       e11             -0.475
    x46       e12             -0.475
    x46       e35                  3
    x46       e73       -1925.079906
    x47       e6                   1
    x47       e13             -0.475
    x47       e14             -0.475
    x47       e36                  4
    x47       e73       -2587.128252
    x48       e6                   1
    x48       e15             -0.475
    x48       e16             -0.475
    x48       e37                  5
    x48       e73       -3385.326554
    x49       e1               -0.76
    x49       e2               -0.19
    x49       e7                   1
    x49       e73       518.60463518
    x50       e3               -0.76
    x50       e4               -0.19
    x50       e7                   1
    x50       e73       374.02078418
    x51       e5               -0.76
    x51       e6               -0.19
    x51       e7                   1
    x51       e73       201.94770308
    x52       e7                0.24
    x52       e8               -0.19
    x52       e73        -2.88519721
    x53       e7                   1
    x53       e9               -0.76
    x53       e10              -0.19
    x53       e73       -246.8005355
    x54       e7                   1
    x54       e11              -0.76
    x54       e12              -0.19
    x54       e73       -537.3947984
    x55       e7                   1
    x55       e13              -0.76
    x55       e14              -0.19
    x55       e73       -883.8098884
    x56       e7                   1
    x56       e15              -0.76
    x56       e16              -0.19
    x56       e73       -1297.066247
    x57       e1              -0.475
    x57       e2              -0.475
    x57       e8                   1
    x57       e38                 -3
    x57       e73       255.74439255
    x58       e3              -0.475
    x58       e4              -0.475
    x58       e8                   1
    x58       e39                 -2
    x58       e73       37.492185191
    x59       e5              -0.475
    x59       e6              -0.475
    x59       e8                   1
    x59       e40                 -1
    x59       e73       -224.9210851
    x60       e7              -0.475
    x60       e8               0.525
    x60       e73       -540.4438833
    x61       e8                   1
    x61       e9              -0.475
    x61       e10             -0.475
    x61       e41                  1
    x61       e73       -919.9094449
    x62       e8                   1
    x62       e11             -0.475
    x62       e12             -0.475
    x62       e42                  2
    x62       e73       -1376.454971
    x63       e8                   1
    x63       e13             -0.475
    x63       e14             -0.475
    x63       e43                  3
    x63       e73       -1926.039906
    x64       e8                   1
    x64       e15             -0.475
    x64       e16             -0.475
    x64       e44                  4
    x64       e73       -2588.088252
    x65       e1               -0.76
    x65       e2               -0.19
    x65       e9                   1
    x65       e73       639.13942538
    x66       e3               -0.76
    x66       e4               -0.19
    x66       e9                   1
    x66       e73       517.64463518
    x67       e5               -0.76
    x67       e6               -0.19
    x67       e9                   1
    x67       e73       373.06078418
    x68       e7               -0.76
    x68       e8               -0.19
    x68       e9                   1
    x68       e73       200.98770308
    x69       e9                0.24
    x69       e10              -0.19
    x69       e73        -3.84519721
    x70       e9                   1
    x70       e11              -0.76
    x70       e12              -0.19
    x70       e73       -247.7605355
    x71       e9                   1
    x71       e13              -0.76
    x71       e14              -0.19
    x71       e73       -538.3547984
    x72       e9                   1
    x72       e15              -0.76
    x72       e16              -0.19
    x72       e73       -884.7698884
    x73       e1              -0.475
    x73       e2              -0.475
    x73       e10                  1
    x73       e45                 -4
    x73       e73        436.2790683
    x74       e3              -0.475
    x74       e4              -0.475
    x74       e10                  1
    x74       e46                 -3
    x74       e73       254.78439255
    x75       e5              -0.475
    x75       e6              -0.475
    x75       e10                  1
    x75       e47                 -2
    x75       e73       36.532185191
    x76       e7              -0.475
    x76       e8              -0.475
    x76       e10                  1
    x76       e48                 -1
    x76       e73       -225.8810851
    x77       e9              -0.475
    x77       e10              0.525
    x77       e73       -541.4038833
    x78       e10                  1
    x78       e11             -0.475
    x78       e12             -0.475
    x78       e49                  1
    x78       e73       -920.8694449
    x79       e10                  1
    x79       e13             -0.475
    x79       e14             -0.475
    x79       e50                  2
    x79       e73       -1377.414971
    x80       e10                  1
    x80       e15             -0.475
    x80       e16             -0.475
    x80       e51                  3
    x80       e73       -1926.999906
    x81       e1               -0.76
    x81       e2               -0.19
    x81       e11                  1
    x81       e73       740.26388593
    x82       e3               -0.76
    x82       e4               -0.19
    x82       e11                  1
    x82       e73       638.17942538
    x83       e5               -0.76
    x83       e6               -0.19
    x83       e11                  1
    x83       e73       516.68463518
    x84       e7               -0.76
    x84       e8               -0.19
    x84       e11                  1
    x84       e73       372.10078418
    x85       e9               -0.76
    x85       e10              -0.19
    x85       e11                  1
    x85       e73       200.02770308
    x86       e11               0.24
    x86       e12              -0.19
    x86       e73        -4.80519721
    x87       e11                  1
    x87       e13              -0.76
    x87       e14              -0.19
    x87       e73       -248.7205355
    x88       e11                  1
    x88       e15              -0.76
    x88       e16              -0.19
    x88       e73       -539.3147984
    x89       e1              -0.475
    x89       e2              -0.475
    x89       e12                  1
    x89       e52                 -5
    x89       e73       586.19092919
    x90       e3              -0.475
    x90       e4              -0.475
    x90       e12                  1
    x90       e53                 -4
    x90       e73        435.3190683
    x91       e5              -0.475
    x91       e6              -0.475
    x91       e12                  1
    x91       e54                 -3
    x91       e73       253.82439255
    x92       e7              -0.475
    x92       e8              -0.475
    x92       e12                  1
    x92       e55                 -2
    x92       e73       35.572185191
    x93       e9              -0.475
    x93       e10             -0.475
    x93       e12                  1
    x93       e56                 -1
    x93       e73       -226.8410851
    x94       e11             -0.475
    x94       e12              0.525
    x94       e73       -542.3638833
    x95       e12                  1
    x95       e13             -0.475
    x95       e14             -0.475
    x95       e57                  1
    x95       e73       -921.8294449
    x96       e12                  1
    x96       e15             -0.475
    x96       e16             -0.475
    x96       e58                  2
    x96       e73       -1378.374971
    x97       e1               -0.76
    x97       e2               -0.19
    x97       e13                  1
    x97       e73       825.05776782
    x98       e3               -0.76
    x98       e4               -0.19
    x98       e13                  1
    x98       e73       739.30388593
    x99       e5               -0.76
    x99       e6               -0.19
    x99       e13                  1
    x99       e73       637.21942538
    x100      e7               -0.76
    x100      e8               -0.19
    x100      e13                  1
    x100      e73       515.72463518
    x101      e9               -0.76
    x101      e10              -0.19
    x101      e13                  1
    x101      e73       371.14078418
    x102      e11              -0.76
    x102      e12              -0.19
    x102      e13                  1
    x102      e73       199.06770308
    x103      e13               0.24
    x103      e14              -0.19
    x103      e73        -5.76519721
    x104      e13                  1
    x104      e15              -0.76
    x104      e16              -0.19
    x104      e73       -249.6805355
    x105      e1              -0.475
    x105      e2              -0.475
    x105      e14                  1
    x105      e59                 -6
    x105      e73       710.57071116
    x106      e3              -0.475
    x106      e4              -0.475
    x106      e14                  1
    x106      e60                 -5
    x106      e73       585.23092919
    x107      e5              -0.475
    x107      e6              -0.475
    x107      e14                  1
    x107      e61                 -4
    x107      e73        434.3590683
    x108      e7              -0.475
    x108      e8              -0.475
    x108      e14                  1
    x108      e62                 -3
    x108      e73       252.86439255
    x109      e9              -0.475
    x109      e10             -0.475
    x109      e14                  1
    x109      e63                 -2
    x109      e73       34.612185191
    x110      e11             -0.475
    x110      e12             -0.475
    x110      e14                  1
    x110      e64                 -1
    x110      e73       -227.8010851
    x111      e13             -0.475
    x111      e14              0.525
    x111      e73       -543.3238833
    x112      e14                  1
    x112      e15             -0.475
    x112      e16             -0.475
    x112      e65                  1
    x112      e73       -922.7894449
    x113      e1               -0.76
    x113      e2               -0.19
    x113      e15                  1
    x113      e73       896.10269237
    x114      e3               -0.76
    x114      e4               -0.19
    x114      e15                  1
    x114      e73       824.09776782
    x115      e5               -0.76
    x115      e6               -0.19
    x115      e15                  1
    x115      e73       738.34388593
    x116      e7               -0.76
    x116      e8               -0.19
    x116      e15                  1
    x116      e73       636.25942538
    x117      e9               -0.76
    x117      e10              -0.19
    x117      e15                  1
    x117      e73       514.76463518
    x118      e11              -0.76
    x118      e12              -0.19
    x118      e15                  1
    x118      e73       370.18078418
    x119      e13              -0.76
    x119      e14              -0.19
    x119      e15                  1
    x119      e73       198.10770308
    x120      e15               0.24
    x120      e16              -0.19
    x120      e73        -6.72519721
    x121      e1              -0.475
    x121      e2              -0.475
    x121      e16                  1
    x121      e66                 -7
    x121      e73       813.64862732
    x122      e3              -0.475
    x122      e4              -0.475
    x122      e16                  1
    x122      e67                 -6
    x122      e73       709.61071116
    x123      e5              -0.475
    x123      e6              -0.475
    x123      e16                  1
    x123      e68                 -5
    x123      e73       584.27092919
    x124      e7              -0.475
    x124      e8              -0.475
    x124      e16                  1
    x124      e69                 -4
    x124      e73        433.3990683
    x125      e9              -0.475
    x125      e10             -0.475
    x125      e16                  1
    x125      e70                 -3
    x125      e73       251.90439255
    x126      e11             -0.475
    x126      e12             -0.475
    x126      e16                  1
    x126      e71                 -2
    x126      e73       33.652185191
    x127      e13             -0.475
    x127      e14             -0.475
    x127      e16                  1
    x127      e72                 -1
    x127      e73       -228.7610851
    x128      e15             -0.475
    x128      e16              0.525
    x128      e73       -544.2838833
    x129      obj                  1
    x129      e73                  1
RHS
    rhs       e1              0.0625
    rhs       e2              0.0625
    rhs       e3              0.0625
    rhs       e4              0.0625
    rhs       e5              0.0625
    rhs       e6              0.0625
    rhs       e7              0.0625
    rhs       e8              0.0625
    rhs       e9              0.0625
    rhs       e10             0.0625
    rhs       e11             0.0625
    rhs       e12             0.0625
    rhs       e13             0.0625
    rhs       e14             0.0625
    rhs       e15             0.0625
    rhs       e16             0.0625
BOUNDS
 FR bnd       x129
ENDATA
